Maximize
  3.1494541152398792e-04 Z_28_0_0 + 0.00151935727435443 Z_28_0_1
   + 0.7674325999932657 Z_28_0_2 + 0.00935551195798667 Z_28_0_3
   + 0.1213775853628693 Z_28_0_4 + 0.0208685647483997 Z_286_5_0
   + 0.00593950439691108 Z_286_5_1 + 0.0872002001524723 Z_286_5_2
   + 0.00688124034249965 Z_286_5_3 + 0.7791104903597172 Z_286_5_4
   + 0.00989341 Z_286_0_0 + 0.00241190497992178 Z_286_0_1
   + 0.2343407908587537 Z_286_0_2 + 0.0395871288625206 Z_286_0_3
   + 0.6137667653131966 Z_286_0_4 + 0.1225070783973427 Z_286_3_0
   + 0.0201240017156788 Z_286_3_1 + 0.0128052971034594 Z_286_3_2
   + 0.0180473994257495 Z_286_3_3 + 0.7265162233577697 Z_286_3_4
   + 0.014771010119179 Z_286_1_0 + 0.00645840188900697 Z_286_1_1
   + 0.3439157122891552 Z_286_1_2 + 0.0167076455079965 Z_286_1_3
   + 0.5181472301946625 Z_286_1_4 + 0.014771010119179 Z_286_6_0
   + 0.00645840188900697 Z_286_6_1 + 0.3439157122891552 Z_286_6_2
   + 0.0167076455079965 Z_286_6_3 + 0.5181472301946625 Z_286_6_4
   + 0.000382956 Z_286_2_0 + 0.00332398269943906 Z_286_2_1
   + 0.6712820268018775 Z_286_2_2 + 0.00203329144827199 Z_286_2_3
   + 0.2229777429719259 Z_286_2_4 + 3.3047073428220272e-04 Z_188_0_0
   + 0.00142323606637816 Z_188_0_1 + 0.6053415767522589 Z_188_0_2
   + 0.00189349840052272 Z_188_0_3 + 0.2910112180465581 Z_188_0_4
Subject To
 constraint1_280: Z_28_0_0 + Z_28_0_1 + Z_28_0_2 + Z_28_0_3 + Z_28_0_4
   <= 1
 constraint1_2865: Z_286_5_0 + Z_286_5_1 + Z_286_5_2 + Z_286_5_3
   + Z_286_5_4 <= 1
 constraint1_2860: Z_286_0_0 + Z_286_0_1 + Z_286_0_2 + Z_286_0_3
   + Z_286_0_4 <= 1
 constraint1_2863: Z_286_3_0 + Z_286_3_1 + Z_286_3_2 + Z_286_3_3
   + Z_286_3_4 <= 1
 constraint1_2861: Z_286_1_0 + Z_286_1_1 + Z_286_1_2 + Z_286_1_3
   + Z_286_1_4 <= 1
 constraint1_2866: Z_286_6_0 + Z_286_6_1 + Z_286_6_2 + Z_286_6_3
   + Z_286_6_4 <= 1
 constraint1_2862: Z_286_2_0 + Z_286_2_1 + Z_286_2_2 + Z_286_2_3
   + Z_286_2_4 <= 1
 constraint1_1880: Z_188_0_0 + Z_188_0_1 + Z_188_0_2 + Z_188_0_3
   + Z_188_0_4 <= 1
 constraint2_280: Z_28_0_0 <= 1
 constraint2_281: Z_28_0_1 <= 1
 constraint2_282: Z_28_0_2 <= 1
 constraint2_283: Z_28_0_3 <= 1
 constraint2_2860: Z_286_5_0 + Z_286_0_0 + Z_286_3_0 + Z_286_1_0
   + Z_286_6_0 + Z_286_2_0 <= 1
 constraint2_2861: Z_286_5_1 + Z_286_0_1 + Z_286_3_1 + Z_286_1_1
   + Z_286_6_1 + Z_286_2_1 <= 1
 constraint2_2862: Z_286_5_2 + Z_286_0_2 + Z_286_3_2 + Z_286_1_2
   + Z_286_6_2 + Z_286_2_2 <= 1
 constraint2_2863: Z_286_5_3 + Z_286_0_3 + Z_286_3_3 + Z_286_1_3
   + Z_286_6_3 + Z_286_2_3 <= 1
 constraint2_1880: Z_188_0_0 <= 1
 constraint2_1881: Z_188_0_1 <= 1
 constraint2_1882: Z_188_0_2 <= 1
 constraint2_1883: Z_188_0_3 <= 1
Bounds
Binaries
 Z_28_0_0 Z_28_0_1 Z_28_0_2 Z_28_0_3 Z_28_0_4 Z_286_5_0 Z_286_5_1 Z_286_5_2
 Z_286_5_3 Z_286_5_4 Z_286_0_0 Z_286_0_1 Z_286_0_2 Z_286_0_3 Z_286_0_4
 Z_286_3_0 Z_286_3_1 Z_286_3_2 Z_286_3_3 Z_286_3_4 Z_286_1_0 Z_286_1_1
 Z_286_1_2 Z_286_1_3 Z_286_1_4 Z_286_6_0 Z_286_6_1 Z_286_6_2 Z_286_6_3
 Z_286_6_4 Z_286_2_0 Z_286_2_1 Z_286_2_2 Z_286_2_3 Z_286_2_4 Z_188_0_0
 Z_188_0_1 Z_188_0_2 Z_188_0_3 Z_188_0_4
End
